% Escenario 7:
% - 3 plantas
% - 3 clientes
% - 4 días
% Se incrementa n=4, demands y G=0.5. Distintos costos y capac.

p = 3;
m = 3;
n = 4;

plantNames = ["Nuclear", "Hidroelectrica", "Termica"];
clientNames = ["Cli1", "Cli2", "Cli3"];

cost = [33.0, 26.0, 49.0];
capacity = [950, 250, 400];
payment = [105.0, 110.0, 90.0];

demand = array2d(1..m, 1..n, [
  100, 120, 150, 80,
  120, 100, 130, 90,
  100, 130, 140, 140
]);

G = 0.50;

highThreshold = [0.8, 0.8, 0.8];
maxConsecutiveHigh = [1, 1, 1];
